
################## Species and atoms ##################
SystemName       siesta
SystemLabel      siesta
NumberOfSpecies   4
NumberOfAtoms     48
   
   
%block ChemicalSpeciesLabel
1 8 O
2 7 N
3 6 C
4 1 H
%endblock ChemicalSpeciesLabel
   
   
SolutionMethod   Diagon # ## OrderN or Diagon
PAO.BasisType    split
%block PAO.Basis
O     3
 n=2    0    2  S .3704717
   5.1368012   0.0
   1.000   1.000
 n=2    1    2  S .5000000
   5.7187560   0.0
   1.000   1.000
 n=3    2    1
   3.0328434
   1.000
N     3 
 n=2    0    2  S .3474598
   6.7354564   0.0
   1.000   1.000
 n=2    1    2  S .3640613
   5.9904928  0.0
   1.000   1.000
 n=3    2    1
   4.9981827
   1.000
C      3
 n=2    0    2  S .5000000
   5.3583962   0.0
   1.000   1.000
 n=2    1    2  S .3123723
   5.7783757   0.0
   1.000   1.000
 n=3    2    1
   4.5649411
   1.000
H     2
 n=1    0    2  S .7020340
   4.4302740  0.0
   1.000   1.000
 n=2    1    1
   4.7841521
   1.000
%endblock PAO.Basis
   
SpinPolarized    F
   
DM.MixingWeight      0.4   
DM.NumberPulay       9
DM.Tolerance         1.d-4
   
   
   
   
################### FUNCTIONAL ###################
XC.functional    GGA    # Exchange-correlation functional type
XC.Authors       PBE    # Particular parametrization of xc func
   
   
MeshCutoff       200. Ry # Equivalent planewave cutoff for the grid 
KgridCutoff      5.440800 Ang
   
   
WriteCoorInitial T
WriteCoorXmol    T
WriteMDhistory   T
WriteMullikenPop 1
WriteForces      T
   
###################  GEOMETRY  ###################

LatticeConstant  1.00 Ang
%block LatticeVectors
5.4408 0.0 0.0
0.0 11.7514 0.0
-0.579945411599857 0.0 6.535519012256355
%endblock LatticeVectors
   
AtomicCoordinatesFormat Ang
   
%block AtomicCoordinatesAndAtomicSpecies
3.87936 4.86614 1.20705 1
1.27146 10.7418 2.06071 1
0.981491 6.88526 5.32847 1
3.58939 1.00956 4.4748 1
3.78929 4.86649 2.52872 2
1.36154 10.7422 0.739036 2
1.07157 6.88491 4.0068 2
3.49931 1.00921 5.79648 2
2.80949 4.21734 3.17757 2
2.34133 10.093 0.0901902 2
2.05136 7.53406 3.35795 2
2.51952 1.65836 6.44533 2
3.00956 4.4237 4.45461 2
1.56132 10.2994 5.34867 2
1.85129 7.3277 2.08091 2
3.29953 1.452 1.18685 2
4.10343 5.20352 4.65394 2
0.467453 11.0792 5.14934 2
0.757426 6.54788 1.88158 2
4.3934 0.67218 1.38618 2
4.57309 5.47039 3.43245 3
-0.00220799 11.3461 6.37082 3
0.287765 6.28101 3.10306 3
4.86306 0.405306 0.164695 3
0.53435 3.39662 0.698255 1
4.59074 9.26 2.57406 1
4.3265 8.35478 5.83726 1
0.244378 2.47908 3.96601 1
0.867564 4.13814 6.45905 2
3.72636 10.0011 3.33938 2
3.99329 7.61326 0.0764656 2
1.15754 1.73756 3.19129 2
0.503766 4.92149 6.15646 4
4.08653 10.9433 3.63335 4
4.35709 6.82991 0.37906 4
0.793739 0.954214 2.8887 4
5.28357 3.9755 0.790798 4
0.0862486 9.9716 2.49694 4
-0.422719 7.7759 5.74472 4
4.9936 1.9002 4.05856 4
1.14387 3.64293 5.81008 4
3.32551 9.29032 4.11633 4
3.71698 8.10847 0.725443 4
1.43385 2.23277 2.54232 4
2.16757 4.34919 0.405202 4
2.87924 10.2253 2.69107 4
2.69329 7.40221 6.13032 4
1.87759 1.52651 3.67296 4
%endblock AtomicCoordinatesAndAtomicSpecies
