
################## Species and atoms ##################
SystemName       siesta
SystemLabel      siesta
NumberOfSpecies   3
NumberOfAtoms     11
   
   
%block ChemicalSpeciesLabel
1 1 H
2 8 O
3 6 C
%endblock ChemicalSpeciesLabel
   
   
SolutionMethod   Diagon # ## OrderN or Diagon
PAO.BasisType    split
%block PAO.Basis
H     2
 n=1    0    2  S .7020340
   4.4302740  0.0
   1.000   1.000
 n=2    1    1
   4.7841521
   1.000
O     3
 n=2    0    2  S .3704717
   5.1368012   0.0
   1.000   1.000
 n=2    1    2  S .5000000
   5.7187560   0.0
   1.000   1.000
 n=3    2    1
   3.0328434
   1.000
C      3
 n=2    0    2  S .5000000
   5.3583962   0.0
   1.000   1.000
 n=2    1    2  S .3123723
   5.7783757   0.0
   1.000   1.000
 n=3    2    1
   4.5649411
   1.000
%endblock PAO.Basis
   
SpinPolarized    F
   
DM.MixingWeight      0.4   
DM.NumberPulay       9
DM.Tolerance         1.d-4
   
   
   
   
################### FUNCTIONAL ###################
XC.functional    GGA    # Exchange-correlation functional type
XC.Authors       PBE    # Particular parametrization of xc func
   
   
MeshCutoff       200. Ry # Equivalent planewave cutoff for the grid 
KgridCutoff      10.000000 Ang
   
   
WriteCoorInitial T
WriteCoorXmol    T
WriteMDhistory   T
WriteMullikenPop 1
WriteForces      T
   
###################  GEOMETRY  ###################

LatticeConstant  1.00 Ang
%block LatticeVectors
10.0 0.0 0.0
0.0 10.0 0.0
0.0 0.0 10.0
%endblock LatticeVectors
   
AtomicCoordinatesFormat Ang
   
%block AtomicCoordinatesAndAtomicSpecies
3.886439321 8.797906713 5.695154216 1
4.445989302 8.216517319 5.504074825 2
4.373677317 7.649592216 6.284568658 1
4.420943214 3.043120665 1.011484045 1
4.617990556 2.195301503 1.88243042 2
5.280094235 2.600407366 2.800265271 1
5.275281928 3.360446645 6.837294151 1
4.785282453 2.756308138 7.660548738 3
5.557469822 2.381798195 8.333886599 1
4.187109175 1.905913285 7.294354939 1
4.2091634 3.425542143 8.279476864 1
%endblock AtomicCoordinatesAndAtomicSpecies
