
################## Species and atoms ##################
SystemName       siesta
SystemLabel      siesta
NumberOfSpecies   2
NumberOfAtoms     48
   
   
%block ChemicalSpeciesLabel
1 8 O
2 1 H
%endblock ChemicalSpeciesLabel
   
   
SolutionMethod   Diagon # ## OrderN or Diagon
PAO.BasisType    split
%block PAO.Basis
O     3
 n=2    0    2  S .3704717
   5.1368012   0.0
   1.000   1.000
 n=2    1    2  S .5000000
   5.7187560   0.0
   1.000   1.000
 n=3    2    1
   3.0328434
   1.000
H     2
 n=1    0    2  S .7020340
   4.4302740  0.0
   1.000   1.000
 n=2    1    1
   4.7841521
   1.000
%endblock PAO.Basis
   
SpinPolarized    F
   
DM.MixingWeight      0.4   
DM.NumberPulay       9
DM.Tolerance         1.d-4
   
   
   
   
################### FUNCTIONAL ###################
XC.functional    GGA    # Exchange-correlation functional type
XC.Authors       PBE    # Particular parametrization of xc func
   
   
MeshCutoff       200. Ry # Equivalent planewave cutoff for the grid 
KgridCutoff      6.302100 Ang
   
   
WriteCoorInitial T
WriteCoorXmol    T
WriteMDhistory   T
WriteMullikenPop 1
WriteForces      T
   
###################  GEOMETRY  ###################

LatticeConstant  1.00 Ang
%block LatticeVectors
16.6576 0.0 0.0
0.0 6.3021 0.0
0.0 0.0 12.0428
%endblock LatticeVectors
   
AtomicCoordinatesFormat Ang
   
%block AtomicCoordinatesAndAtomicSpecies
15.960495451 0.122325633 10.509406308 1
16.208291351 5.768566361 11.198295382 2
15.998190745 5.828415652 9.728881032 2
0.41742121 3.306907688 10.541517411 1
1.226923513 2.906849732 10.921768811 2
16.611242433 2.489302172 10.263100908 2
6.490233064 4.803335368 11.904521943 1
6.985808858 5.289652622 11.209503037 2
5.799509109 5.476872884 0.04427093 2
14.598109304 6.258497385 1.841974627 1
14.276609561 5.857240082 1.008306466 2
13.744174698 0.274429137 2.204328097 2
12.298647539 5.668478488 11.440661686 1
12.528538572 4.720384059 11.539471966 2
11.563996958 5.711868493 0.046198181 2
10.861463026 4.45696614 7.648907877 1
11.743432503 4.885276186 7.644450527 2
10.350743781 5.15729945 7.190197089 2
9.583620089 4.152887877 1.122446574 1
8.759903733 4.639804456 1.33390788 2
9.390806239 3.919915496 0.189441628 2
11.403710864 1.545393206 1.739359046 1
11.576500687 2.047448542 0.913716372 2
10.846056977 2.207014155 2.201811125 2
14.063196407 4.118798379 8.645355727 1
13.946984375 3.242225074 8.221439047 2
14.14075199 3.825674716 9.577919121 2
7.814553529 3.284576816 8.954824841 1
8.557420791 3.021844093 9.537845719 2
8.047054729 4.228038064 8.824216682 2
5.970147501 1.561800343 11.099850871 1
6.175505532 1.812706362 10.174225819 2
6.192221658 2.407299722 11.54349135 2
13.955149273 2.846243392 11.868784294 1
14.134115135 1.928218276 11.573006924 2
14.610149546 2.900183872 0.554094328 2
13.148038189 0.974836223 8.750296913 1
13.048638458 0.378533428 9.524528491 2
13.749483224 0.413858856 8.214352869 2
9.147134684 6.211749689 10.407493249 1
9.831837312 0.094383488 9.730266767 2
9.301573997 0.680881799 10.993521957 2
10.15095256 1.232532848 7.18447981 1
10.901050669 1.834758698 7.374805581 2
9.417445057 1.881917876 7.216726812 2
10.804305122 2.767287257 10.456358773 1
10.978357726 3.54271692 9.881032576 2
11.627957791 2.265697748 10.27953824 2
%endblock AtomicCoordinatesAndAtomicSpecies
