
################## Species and atoms ##################
SystemName       siesta
SystemLabel      siesta
NumberOfSpecies   2
NumberOfAtoms     48
   
   
%block ChemicalSpeciesLabel
1 8 O
2 1 H
%endblock ChemicalSpeciesLabel
   
   
SolutionMethod   Diagon # ## OrderN or Diagon
PAO.BasisType    split
%block PAO.Basis
O     3
 n=2    0    2  S .3704717
   5.1368012   0.0
   1.000   1.000
 n=2    1    2  S .5000000
   5.7187560   0.0
   1.000   1.000
 n=3    2    1
   3.0328434
   1.000
H     2
 n=1    0    2  S .7020340
   4.4302740  0.0
   1.000   1.000
 n=2    1    1
   4.7841521
   1.000
%endblock PAO.Basis
   
SpinPolarized    F
   
DM.MixingWeight      0.4   
DM.NumberPulay       9
DM.Tolerance         1.d-4
   
   
   
   
################### FUNCTIONAL ###################
XC.functional    GGA    # Exchange-correlation functional type
XC.Authors       PBE    # Particular parametrization of xc func
   
   
MeshCutoff       200. Ry # Equivalent planewave cutoff for the grid 
KgridCutoff      6.302100 Ang
   
   
WriteCoorInitial T
WriteCoorXmol    T
WriteMDhistory   T
WriteMullikenPop 1
WriteForces      T
   
###################  GEOMETRY  ###################

LatticeConstant  1.00 Ang
%block LatticeVectors
16.6576 0.0 0.0
0.0 6.3021 0.0
0.0 0.0 12.0428
%endblock LatticeVectors
   
AtomicCoordinatesFormat Ang
   
%block AtomicCoordinatesAndAtomicSpecies
16.037770467 0.388806655 11.708605666 1
15.83659409 -0.5413977590000009 11.923169263 2
15.470717833 0.367544456 10.889348147 2
1.581233822 3.09996602 10.021562498 1
0.775656832 3.621386856 10.285807739 2
2.257071581 3.093786318 10.834090848 2
5.991828148 4.117611086 12.352584524 1
5.914899444 5.074258003 12.090412779 2
5.152749732 4.135340704 12.905365375 2
16.653790351 6.529613222 4.872671204 1
17.615919535 6.660119665000001 4.458009445 2
16.497127468 5.53841166 4.825664149 2
12.915339859 5.938711333 12.117690346 1
12.610885242 5.098956321 12.378168502 2
12.374745786 6.539058087000001 12.607600159999999 2
10.997037453 4.516025422 6.736789229 1
11.264420285 4.404872418 5.830718343 2
10.484129322 5.294216979 6.881122828 2
9.096686093 4.659688945 1.389852248 1
8.731912455 5.566312526 1.324347934 2
9.620618385 4.447156188 0.610711917 2
11.631359814 3.693405454 2.707868957 1
12.577286098 3.464335001 2.91045632 2
11.327056139 2.772809185 2.524685574 2
14.553861972 3.017071685 7.175820986 1
15.365371051 2.605306205 6.8948112 2
14.265942313 3.410691908 6.371539896 2
5.193659215 2.513964565 8.071244228 1
5.580841074 3.379502138 7.920653165 2
5.265170412 2.237903327 9.004474461 2
3.647383285 6.097348777 10.48646546 1
3.569060472 6.704970167000001 9.703717477 2
3.375463394 5.292849356 9.959357271 2
15.203722047 3.813781953 10.575386755 1
15.31320495 3.445596284 9.687422916 2
14.44332513 3.407982946 11.008389775 2
13.612076775 1.149212877 9.654222543 1
12.735937772 1.09897798 10.095314402 2
13.329756487 1.141738422 8.710050378 2
10.209062113 0.426134885 10.150473806 1
9.597534897 0.5572755619999994 9.360035898 2
9.801657609 0.804200957 11.004712709 2
8.619934141 1.594770703 7.61955122 1
8.63563434 1.694422859 6.648476713 2
8.967448935 2.452522894 7.957498534 2
11.270225809 3.311637774 9.888066809 1
11.047637562 4.175111433 10.173011712 2
11.615505342 3.311242353 9.003269432 2
%endblock AtomicCoordinatesAndAtomicSpecies
