
################## Species and atoms ##################
SystemName       siesta
SystemLabel      siesta
NumberOfSpecies   4
NumberOfAtoms     56
   
   
%block ChemicalSpeciesLabel
1 8 O
2 7 N
3 6 C
4 1 H
%endblock ChemicalSpeciesLabel
   
   
SolutionMethod   Diagon # ## OrderN or Diagon
PAO.BasisType    split
%block PAO.Basis
O     3
 n=2    0    2  S .3704717
   5.1368012   0.0
   1.000   1.000
 n=2    1    2  S .5000000
   5.7187560   0.0
   1.000   1.000
 n=3    2    1
   3.0328434
   1.000
N     3 
 n=2    0    2  S .3474598
   6.7354564   0.0
   1.000   1.000
 n=2    1    2  S .3640613
   5.9904928  0.0
   1.000   1.000
 n=3    2    1
   4.9981827
   1.000
C      3
 n=2    0    2  S .5000000
   5.3583962   0.0
   1.000   1.000
 n=2    1    2  S .3123723
   5.7783757   0.0
   1.000   1.000
 n=3    2    1
   4.5649411
   1.000
H     2
 n=1    0    2  S .7020340
   4.4302740  0.0
   1.000   1.000
 n=2    1    1
   4.7841521
   1.000
%endblock PAO.Basis
   
SpinPolarized    F
   
DM.MixingWeight      0.4   
DM.NumberPulay       9
DM.Tolerance         1.d-4
   
   
   
   
################### FUNCTIONAL ###################
XC.functional    GGA    # Exchange-correlation functional type
XC.Authors       PBE    # Particular parametrization of xc func
   
   
MeshCutoff       200. Ry # Equivalent planewave cutoff for the grid 
KgridCutoff      5.768000 Ang
   
   
WriteCoorInitial T
WriteCoorXmol    T
WriteMDhistory   T
WriteMullikenPop 1
WriteForces      T
   
###################  GEOMETRY  ###################

LatticeConstant  1.00 Ang
%block LatticeVectors
6.8466 0.0 0.0
-0.006231508386476008 5.767996633867189 0.0
0.14718465739720019 -0.13737678765364092 12.176335585669477
%endblock LatticeVectors
   
AtomicCoordinatesFormat Ang
   
%block AtomicCoordinatesAndAtomicSpecies
5.621173456399907 1.7364106567603736 8.669550936996668 1
4.873335876856392 3.958610176778138 2.757696483442423 1
2.0125710790002755 1.093072731722846 3.3760108044827195 1
1.5566528114400828 4.502399687603815 9.492305932520354 1
5.864935162519268 3.085008611263517 6.9890948628184235 1
4.469816682851516 2.604191506891286 1.1299639423501273 1
2.426749779681249 5.454690206468301 4.947853965236792 1
1.1388370071068141 0.1263879766313275 11.087892947666482 1
1.9982974070686423 1.6945343246728912 8.85877119199797 1
1.5926868355330968 3.9554595395018257 2.8171170011004905 1
5.301055078402716 1.0500068787823784 3.241218769549358 1
5.109517892589163 4.588348862769743 9.343511111663473 1
3.8390810497960377 2.410554987579916 9.79086968108097 1
6.635833396910905 3.1970154472161645 3.7535989709943296 1
0.29265903313071173 0.34002325159931146 2.3466233940702215 1
3.2712139795311987 5.296671720420472 8.432355919787828 1
5.178155002493975 2.2521749629685153 7.612157954737131 2
5.218124762151211 3.423869917431624 1.6831348680070917 2
1.6766408615213542 0.5207916931624179 4.427437382305278 2
1.9029120084599993 5.080125296120358 10.555421792505156 2
3.082100072687033 2.328000662239674 8.795210720240776 2
0.5272714868310321 3.3033108267402396 2.7574529567307096 2
6.380737082094106 0.42472963124543134 3.330471309392315 2
4.030881273758132 5.2144000560186905 9.425944903578456 2
3.7763279602563586 2.4058441559456796 7.570393123678284 3
6.616474492845871 3.2497345195981184 1.5655114662495246 3
0.2769473500452148 0.3382630648519357 4.5322756316978925 3
3.312908339907828 5.285439490722382 10.665130576132038 3
3.0997522244991687 2.6686712950121043 6.38100866367009 3
0.387746991454648 3.0253349896894832 0.34069386968703197 3
6.493117478377866 0.05327438166266854 5.743212205692722 3
3.961758704969495 5.5863735768299065 11.859872623797928 3
3.730238764352674 2.9136301181312847 5.159843967783298 2
6.730230803943073 2.755674988706894 11.281861973546198 2
0.29645360155495115 5.533767786160066 6.946964741692007 2
3.173169154577103 0.07913096649762974 0.89520419225842 2
1.6915718724377995 2.705745921964912 6.341313809660806 2
1.787173389894856 2.8770715574542005 0.29186676398849737 2
5.087118527111015 0.043737735052805884 5.80628562402649 2
5.362294144993234 5.484792140992317 11.90139392814506 2
5.770578492729688 4.794071535703931 11.206368692915047 4
5.638743583275386 5.622809605453833 0.6805353958830671 4
3.7438445297910192 0.10368578611824286 1.7658121866337877 4
2.2065739975523098 5.461132899936909 0.9974854111780437 4
4.546733571070337 0.02781848002190268 4.92179660708346 4
4.596643039349843 5.496124380305233 6.663864939325191 4
6.6244202449181 5.317048680353891 7.8174509727115185 4
1.325030710038854 5.625107795898179 7.041209579125088 4
1.209370151879347 2.912719011353988 7.244676146761625 4
1.2505416741400222 3.0980222022189046 5.482882150871109 4
4.674272603355509 2.5000144968903273 5.0058133226245785 4
3.1364380038981956 3.00948353801486 4.307013423363007 4
5.733089617643204 2.4295839276978723 11.314859842983362 4
0.4433292027398552 2.3577203809762537 10.491252503968678 4
2.435174200331112 2.589243871266325 11.58054748546267 4
2.3467835214733657 3.0042514376711513 1.1511507662691924 4
%endblock AtomicCoordinatesAndAtomicSpecies
