
################## Species and atoms ##################
SystemName       siesta
SystemLabel      siesta
NumberOfSpecies   2
NumberOfAtoms     48
   
   
%block ChemicalSpeciesLabel
1 8 O
2 1 H
%endblock ChemicalSpeciesLabel
   
   
SolutionMethod   Diagon # ## OrderN or Diagon
PAO.BasisType    split
%block PAO.Basis
O     3
 n=2    0    2  S .3704717
   5.1368012   0.0
   1.000   1.000
 n=2    1    2  S .5000000
   5.7187560   0.0
   1.000   1.000
 n=3    2    1
   3.0328434
   1.000
H     2
 n=1    0    2  S .7020340
   4.4302740  0.0
   1.000   1.000
 n=2    1    1
   4.7841521
   1.000
%endblock PAO.Basis
   
SpinPolarized    F
   
DM.MixingWeight      0.4   
DM.NumberPulay       9
DM.Tolerance         1.d-4
   
   
   
   
################### FUNCTIONAL ###################
XC.functional    GGA    # Exchange-correlation functional type
XC.Authors       PBE    # Particular parametrization of xc func
   
   
MeshCutoff       200. Ry # Equivalent planewave cutoff for the grid 
KgridCutoff      6.502100 Ang
   
   
WriteCoorInitial T
WriteCoorXmol    T
WriteMDhistory   T
WriteMullikenPop 1
WriteForces      T
   
###################  GEOMETRY  ###################

LatticeConstant  1.00 Ang
%block LatticeVectors
15.0 0.0 0.0
0.0 6.5021 0.0
0.0 0.0 11.0428
%endblock LatticeVectors
   
AtomicCoordinatesFormat Ang
   
%block AtomicCoordinatesAndAtomicSpecies
0.581540008 0.755227626 9.867352448 1
1.121640722 -0.021095667 9.694147709 2
0.84261449 1.337885341 9.10379307 2
1.611466429 4.081616098 9.335973673 1
2.558873931 4.009230014 9.153440426 2
1.113343113 3.728920001 10.021897715 2
6.284706679 5.263181437 1.123649773 1
6.15210337 5.975609649 0.428606525 2
5.533729769 5.518432506 1.711686866 2
1.309976963 1.753339072 1.333137693 1
2.044934448 1.143099998 1.385317069 2
0.57370942 1.126506903 1.476814318 2
12.526544057 5.290221489 0.640920258 1
13.458235748 5.170608128 0.886275796 2
12.023425696 5.213178494 1.476400984 2
10.867893255 4.001107347 6.980005574 1
11.445253285 4.65857719 6.522512041 2
10.015799003 4.497671938 6.764148068 2
9.065101853 3.873534196 1.837800763 1
8.478071728 4.405322343 2.374729724 2
8.76352922 4.192001892 0.937960895 2
11.437172622 1.867564838 1.817948667 1
11.680902467 1.981381607 0.880865091 2
10.458822004 1.803510803 1.777976561 2
13.384360487 4.887647592 8.2853494 1
13.318313108 3.936784886 8.080785569 2
14.243880378 4.84727854 8.707905313 2
7.71608439 3.049400512 7.779766799 1
8.489559969 2.593933381 8.213290486 2
7.786152422 3.917211187 8.27061467 2
5.026207246 1.484899316 10.559956101 1
5.174840978 1.514541282 9.586423911 2
5.864274692 1.881692841 10.86477499 2
5.879769599 4.068999729 5.016621119 1
5.882465768 4.012184628 4.034435175 2
6.888685089 4.054183104 5.131735454 2
13.047897506 1.305764268 8.453422291 1
13.167195573 1.092110426 9.40492327 2
13.036412421 0.411630465 8.038771117 2
9.381440491 0.069004504 9.952793601 1
10.258854953 -0.3524077069999999 9.881075562 2
9.52176645 0.664764396 10.721949332 2
9.991397951 0.842572642 5.682129447 1
10.416231691 1.616950311 5.280802535 2
9.219039889 1.175006353 6.170584398 2
10.767150322 2.633310167 9.8220501 1
11.080169334 3.566250464 9.802665535 2
10.902159756 2.443267103 8.865595999 2
%endblock AtomicCoordinatesAndAtomicSpecies
