
################## Species and atoms ##################
SystemName       siesta
SystemLabel      siesta
NumberOfSpecies   2
NumberOfAtoms     48
   
   
%block ChemicalSpeciesLabel
1 8 O
2 1 H
%endblock ChemicalSpeciesLabel
   
   
SolutionMethod   Diagon # ## OrderN or Diagon
PAO.BasisType    split
%block PAO.Basis
O     3
 n=2    0    2  S .3704717
   5.1368012   0.0
   1.000   1.000
 n=2    1    2  S .5000000
   5.7187560   0.0
   1.000   1.000
 n=3    2    1
   3.0328434
   1.000
H     2
 n=1    0    2  S .7020340
   4.4302740  0.0
   1.000   1.000
 n=2    1    1
   4.7841521
   1.000
%endblock PAO.Basis
   
SpinPolarized    F
   
DM.MixingWeight      0.4   
DM.NumberPulay       9
DM.Tolerance         1.d-4
   
   
   
   
################### FUNCTIONAL ###################
XC.functional    GGA    # Exchange-correlation functional type
XC.Authors       PBE    # Particular parametrization of xc func
   
   
MeshCutoff       200. Ry # Equivalent planewave cutoff for the grid 
KgridCutoff      7.000000 Ang
   
   
WriteCoorInitial T
WriteCoorXmol    T
WriteMDhistory   T
WriteMullikenPop 1
WriteForces      T
   
###################  GEOMETRY  ###################

LatticeConstant  1.00 Ang
%block LatticeVectors
14.0 0.0 0.0
0.0 7.0 0.0
0.0 0.0 10.428
%endblock LatticeVectors
   
AtomicCoordinatesFormat Ang
   
%block AtomicCoordinatesAndAtomicSpecies
1.87799465 0.70205747 9.842347392 1
1.6414893450000003 -0.1816771399999998 10.192303836 2
2.666786751 0.469101934 9.312569403 2
4.246720741 4.79075933 10.395189963 1
4.812265227 4.420509036 9.685041006 2
3.9662376779999997 3.955692474 10.825652782 2
7.234856781 5.417430516 1.721537996 1
7.43218502 6.096556142 1.04280276 2
6.264574858 5.358301184 1.608477985 2
4.424549541 1.518466352 2.055849694 1
5.105017773 1.29049836 1.389064642 2
3.705222705 0.921069007 1.764974028 2
12.489948127 5.574366047 0.912374244 1
11.980050773 6.288693701 1.353952547 2
12.156669455 4.81287614 1.435652438 2
9.883765851 4.645888539 6.187800726 1
10.631285081 4.738081146 6.816482504 2
9.609396706 5.586537065 6.139556386 2
10.174285217 4.092224003 2.677929122 1
9.992212732 4.101976743 3.641017938 2
9.365928981 4.547790969 2.361364434 2
10.015437323 0.732846652 2.098060503 1
10.150904077 1.685381818 1.908160136 2
9.266366812 0.805819129 2.726626418 2
12.697332703 4.465682509 8.208088832 1
13.027585939 3.553351175 8.065363117 2
12.975982772 4.590680946 9.139280055 2
6.961046106 4.199326355 8.114647227 1
7.642795186 3.72937612 7.589746937 2
7.530343803 4.864861135 8.555238906 2
6.981100038 1.799693965 0.216265397 1
7.288459105 1.700436183 -0.7103469240000017 2
7.564961386 2.541927339 0.485993873 2
7.415557065 2.602746111 4.036287045 1
6.689243481 2.400115964 3.409130011 2
7.165713775 3.522927697 4.268756233 2
12.295558247 1.059316425 8.75564858 1
12.929616845 0.781602589 9.4497276 2
12.24909818 0.223828512 8.244461434 2
9.289311943 6.357847544 9.391439457 1
9.426611262 7.060796492000001 8.722266247 2
9.731818776 6.784279506 10.155444245 2
9.448448729 1.130483452 6.418482902 1
10.058360825 1.897885886 6.448784468 2
8.79681721 1.477370528 5.772919062 2
9.755197836 3.033910314 9.76847221 1
9.989197348 3.981156355 9.848631721 2
10.593601664 2.689620268 9.399937053 2
%endblock AtomicCoordinatesAndAtomicSpecies
