
################## Species and atoms ##################
SystemName       siesta
SystemLabel      siesta
NumberOfSpecies   2
NumberOfAtoms     48
   
   
%block ChemicalSpeciesLabel
1 8 O
2 1 H
%endblock ChemicalSpeciesLabel
   
   
SolutionMethod   Diagon # ## OrderN or Diagon
PAO.BasisType    split
%block PAO.Basis
O     3
 n=2    0    2  S .3704717
   5.1368012   0.0
   1.000   1.000
 n=2    1    2  S .5000000
   5.7187560   0.0
   1.000   1.000
 n=3    2    1
   3.0328434
   1.000
H     2
 n=1    0    2  S .7020340
   4.4302740  0.0
   1.000   1.000
 n=2    1    1
   4.7841521
   1.000
%endblock PAO.Basis
   
SpinPolarized    F
   
DM.MixingWeight      0.4   
DM.NumberPulay       9
DM.Tolerance         1.d-4
   
   
   
   
################### FUNCTIONAL ###################
XC.functional    GGA    # Exchange-correlation functional type
XC.Authors       PBE    # Particular parametrization of xc func
   
   
MeshCutoff       200. Ry # Equivalent planewave cutoff for the grid 
KgridCutoff      6.302100 Ang
   
   
WriteCoorInitial T
WriteCoorXmol    T
WriteMDhistory   T
WriteMullikenPop 1
WriteForces      T
   
###################  GEOMETRY  ###################

LatticeConstant  1.00 Ang
%block LatticeVectors
16.6576 0.0 0.0
0.0 6.3021 0.0
0.0 0.0 12.0428
%endblock LatticeVectors
   
AtomicCoordinatesFormat Ang
   
%block AtomicCoordinatesAndAtomicSpecies
16.218864995 0.305361722 11.901374081 1
15.784973469 -0.19066130700000056 12.599774882 2
16.952610784 -0.241926246 11.629211318 2
1.735774942 3.458990338 9.591498584 1
1.544345183 2.935853112 10.400772951 2
2.548717425 3.039292769 9.25245403 2
6.072227217 4.428761234 12.533289273 1
5.20586379 4.861103741 12.927771388 2
6.432280225 4.151913236 13.471660075 2
16.749026346 6.833836667 4.471607763 1
16.035963431 7.457027133000001 3.9467059440000005 2
17.348286538 6.296602378 3.782080676 2
13.114511614 6.222924328 11.902885197 1
13.252076387 5.309307226 12.405819102 2
12.616931115 6.95621083 12.474404317 2
11.029800899 4.099178269 6.4597241 1
11.586758424 3.968913185 7.216439961 2
10.744038104 5.017824341 6.446096435 2
8.919773069 4.54907236 1.686812214 1
8.352224114 5.30107656 1.272125445 2
9.372820268 4.387537851 0.83364112 2
11.62513859 3.292051773 2.572172794 1
11.849481702 3.961889813 3.312155133 2
10.712304087 3.730077427 2.358391537 2
14.056680496 3.712388713 7.250585455 1
14.741888367 3.237248514 6.657125751 2
14.470774693 3.346915725 8.097781702 2
5.248662173 2.677402849 7.639070207 1
4.864672688 3.146796596 6.780426433 2
5.409002497 3.417796282 8.349620656 2
3.788953681 6.125554571 10.781465555 1
4.386206009000001 6.95371599 10.954745006 2
3.548230507 6.34066512 9.826078619 2
15.360595205 3.735551539 10.855887877 1
15.628459422 2.945968352 10.41889253 2
14.846988513 3.583995502 11.606266596 2
13.938291830000002 7.092621774000001 10.123134795 1
13.741951176000002 6.453769190000001 10.489551511 2
13.008693319000002 7.7388576470000014 9.756258277 2
9.954973917 0.203219686 10.464373219 1
10.517654076 0.4738520999999986 9.7076377 2
9.8780479 1.124437471 10.800400022 2
8.434515044 1.389938773 7.042817372 1
7.625797609 1.23520742 7.663131206 2
8.294540645 2.306399756 6.562916888 2
10.885729558 2.915545292 9.975563552 1
10.21220065 3.584790169 10.090240386 2
11.196585722 3.048332242 9.07439746 2
%endblock AtomicCoordinatesAndAtomicSpecies
